PROBLEM NAME: eil51_n8
KNAPSACK DATA TYPE: uncorrelated
DIMENSION: 8
NUMBER OF ITEMS: 7
CAPACITY OF KNAPSACK: 795
MIN SPEED: 0.1
MAX SPEED: 1
RENTING RATIO: 1.95
EDGE_WEIGHT_TYPE: CEIL_2D
NODE_COORD_SECTION	(INDEX, X, Y):
1	52	64
2	57	58
3	16	57
4	27	68
5	58	48
6	10	17
7	39	10
8	48	28
ITEMS SECTION	(INDEX, PROFIT, WEIGHT, ASSIGNED NODE NUMBER):
1	992	421	4
2	649	322	3
3	506	326	6
4	457	43	7
5	416	248	8
6	237	795	5
7	94	485	2
